NAME: eil76
COMMENT: Local search tour for eil76 (645.6396021842572)
TYPE: TOUR
DIMENSION: 76
TOUR_SECTION: 1 73 62 74 28 61 69 21 47 36 71 60 70 20 37 5 15 57 27 52 13 54 19 14 59 66 65 31 55 25 50 18 24 49 56 41 64 22 42 43 23 63 16 3 44 32 9 39 72 58 10 38 11 53 7 35 8 46 34 67 26 12 40 17 51 6 68 75 76 4 45 29 48 30 2 33 -1
EOF